Version identifier: 22.1.0.0 | 2022-03-09 | 1a383f8ce
CPXPARAM_Threads                                 1
CPXPARAM_MIP_Strategy_VariableSelect             3
CPXPARAM_TimeLimit                               599.99995331699995
1 of 1 MIP starts provided solutions.
MIP start 'm1' defined initial solution with objective 27.0000.
Tried aggregator 2 times.
MIP Presolve eliminated 48 rows and 1 columns.
MIP Presolve added 36 rows and 9 columns.
MIP Presolve modified 37 coefficients.
Aggregator did 9 substitutions.
Reduced MIP has 4500 rows, 10500 columns, and 246873 nonzeros.
Reduced MIP has 10500 binaries, 0 generals, 0 SOSs, and 0 indicators.
Presolve time = 0.30 sec. (465.75 ticks)
Probing time = 0.03 sec. (32.97 ticks)
Tried aggregator 1 time.
Detecting symmetries...
MIP Presolve modified 12 coefficients.
Reduced MIP has 4500 rows, 10500 columns, and 247051 nonzeros.
Reduced MIP has 10500 binaries, 0 generals, 0 SOSs, and 0 indicators.
Presolve time = 0.23 sec. (374.18 ticks)
Probing time = 0.03 sec. (32.98 ticks)
Clique table members: 1995.
MIP emphasis: balance optimality and feasibility.
MIP search method: dynamic search.
Parallel mode: none, using 1 thread.
Root relaxation solution time = 8.10 sec. (9704.15 ticks)

        Nodes                                         Cuts/
   Node  Left     Objective  IInf  Best Integer    Best Bound    ItCnt     Gap

*     0+    0                           27.0000   125250.0000              --- 
      0     0      500.0000  2063       27.0000      500.0000    13556     --- 
*     0+    0                          263.0000      500.0000            90.11%
      0     0      500.0000   539      263.0000      Cuts: 11    14431   90.11%
      0     0      500.0000   989      263.0000     Cuts: 274    17999   90.11%
      0     0      500.0000   551      263.0000       Cuts: 6    19162   90.11%
*     0+    0                          334.0000      500.0000            49.70%
*     0+    0                          474.0000      500.0000             5.49%
      0     0        cutoff            474.0000      500.0000    19162    5.49%
      0     0      500.0000   674      474.0000     Cuts: 176    22672    5.49%
Heuristic still looking.
Detecting symmetries...
      0     2      500.0000   398      474.0000      500.0000    22672    5.49%
Elapsed time = 110.74 sec. (113372.75 ticks, tree = 0.01 MB, solutions = 4)
      1     3      500.0000  1047      474.0000      500.0000    48068    5.49%
      2     4      500.0000   765      474.0000      500.0000    55803    5.49%
      3     5      500.0000   857      474.0000      500.0000    63776    5.49%
      4     6      500.0000   759      474.0000      500.0000    63807    5.49%
      5     7      500.0000   727      474.0000      500.0000    64075    5.49%
      6     8      500.0000   745      474.0000      500.0000    65055    5.49%
      7     9      500.0000   733      474.0000      500.0000    65172    5.49%
      8    10      500.0000   743      474.0000      500.0000    65961    5.49%
      9    11      500.0000   730      474.0000      500.0000    67484    5.49%
     11    13      500.0000   733      474.0000      500.0000    67923    5.49%
Elapsed time = 141.64 sec. (141551.06 ticks, tree = 0.29 MB, solutions = 4)
     13    15      500.0000   707      474.0000      500.0000    68183    5.49%
     15    17      500.0000   758      474.0000      500.0000    68996    5.49%
     17    19      500.0000   723      474.0000      500.0000    70636    5.49%
     19    21      500.0000   793      474.0000      500.0000    71946    5.49%
     21    23      500.0000   748      474.0000      500.0000    74218    5.49%
     23    25      500.0000   759      474.0000      500.0000    75505    5.49%
     25    27      500.0000   734      474.0000      500.0000    76582    5.49%
     27    29      500.0000   796      474.0000      500.0000    79465    5.49%
     29    31      500.0000   778      474.0000      500.0000    80950    5.49%
     30    32      500.0000   725      474.0000      500.0000    80995    5.49%
Elapsed time = 158.05 sec. (156672.36 ticks, tree = 1.03 MB, solutions = 4)
     32    34      500.0000   769      474.0000      500.0000    83615    5.49%
     34    36      500.0000   731      474.0000      500.0000    85804    5.49%
     36    38      500.0000   696      474.0000      500.0000    86175    5.49%
     37    39      500.0000   750      474.0000      500.0000    87675    5.49%
     39    41      500.0000   765      474.0000      500.0000    89780    5.49%
     40    42      500.0000   711      474.0000      500.0000    89807    5.49%
     42    44      500.0000   706      474.0000      500.0000    91344    5.49%
     44    46      500.0000   734      474.0000      500.0000    92189    5.49%
     46    48      500.0000   723      474.0000      500.0000    93880    5.49%
     48    50      500.0000   734      474.0000      500.0000    95369    5.49%
Elapsed time = 175.50 sec. (172281.23 ticks, tree = 1.73 MB, solutions = 4)
     50    52      500.0000   756      474.0000      500.0000    96624    5.49%
     52    54      500.0000   771      474.0000      500.0000    98899    5.49%
     54    56      500.0000   781      474.0000      500.0000   100591    5.49%
     56    58      500.0000   837      474.0000      500.0000   102638    5.49%
     58    60      500.0000   747      474.0000      500.0000   104579    5.49%
     59    61      500.0000   801      474.0000      500.0000   108538    5.49%
     61    63      500.0000   789      474.0000      500.0000   109978    5.49%
     63    65      500.0000   822      474.0000      500.0000   112971    5.49%
     65    67      500.0000   804      474.0000      500.0000   114583    5.49%
     67    69      500.0000   791      474.0000      500.0000   116946    5.49%
Elapsed time = 193.95 sec. (188903.30 ticks, tree = 2.44 MB, solutions = 4)
     69    71      500.0000   847      474.0000      500.0000   120661    5.49%
     71    73      500.0000   791      474.0000      500.0000   123516    5.49%
     73    75      500.0000   810      474.0000      500.0000   125396    5.49%
     75    77      500.0000   813      474.0000      500.0000   127816    5.49%
     78    80      500.0000   732      474.0000      500.0000   129236    5.49%
     80    82      500.0000   731      474.0000      500.0000   131097    5.49%
     82    84      500.0000   738      474.0000      500.0000   132800    5.49%
     84    86      500.0000   739      474.0000      500.0000   135284    5.49%
     86    88      500.0000   740      474.0000      500.0000   137656    5.49%
     88    90      500.0000   740      474.0000      500.0000   139622    5.49%
Elapsed time = 205.91 sec. (199792.26 ticks, tree = 3.30 MB, solutions = 4)
     91    93      500.0000   791      474.0000      500.0000   142585    5.49%
     93    95      500.0000   786      474.0000      500.0000   145162    5.49%
     95    97      500.0000   779      474.0000      500.0000   147115    5.49%
     97    99      500.0000   863      474.0000      500.0000   150078    5.49%
    100   102      500.0000   742      474.0000      500.0000   151416    5.49%
    102   104      500.0000   749      474.0000      500.0000   154642    5.49%
    104   106      500.0000   748      474.0000      500.0000   156458    5.49%
    106   108      500.0000   748      474.0000      500.0000   158384    5.49%
    108   110      500.0000   748      474.0000      500.0000   160276    5.49%
    109   111      500.0000   741      474.0000      500.0000   166973    5.49%
Elapsed time = 219.82 sec. (212550.42 ticks, tree = 4.13 MB, solutions = 4)
    110   112      500.0000   811      474.0000      500.0000   168121    5.49%
    112   114      500.0000   861      474.0000      500.0000   170846    5.49%
    114   116      500.0000   786      474.0000      500.0000   174302    5.49%
    116   118      500.0000   772      474.0000      500.0000   176604    5.49%
    118   120      500.0000   759      474.0000      500.0000   178656    5.49%
    120   122      500.0000   805      474.0000      500.0000   181357    5.49%
    122   124      500.0000   870      474.0000      500.0000   184448    5.49%
    124   126      500.0000   808      474.0000      500.0000   187402    5.49%
    126   128      500.0000   818      474.0000      500.0000   190188    5.49%
    128   130      500.0000   748      474.0000      500.0000   191588    5.49%
Elapsed time = 232.61 sec. (224157.03 ticks, tree = 4.87 MB, solutions = 4)
    130   132      500.0000   746      474.0000      500.0000   193446    5.49%
    132   134      500.0000   748      474.0000      500.0000   195559    5.49%
    134   136      500.0000   746      474.0000      500.0000   197907    5.49%
    136   138      500.0000   748      474.0000      500.0000   200461    5.49%
    138   140      500.0000   747      474.0000      500.0000   202377    5.49%
    140   142      500.0000   757      474.0000      500.0000   203794    5.49%
    142   144      500.0000   756      474.0000      500.0000   205230    5.49%
    143   145      500.0000   798      474.0000      500.0000   212107    5.49%
    145   147      500.0000   846      474.0000      500.0000   216970    5.49%
    147   149      500.0000   725      474.0000      500.0000   219696    5.49%
Elapsed time = 249.02 sec. (239446.52 ticks, tree = 5.62 MB, solutions = 4)
    148   150      500.0000   719      474.0000      500.0000   221866    5.49%
    150   152      500.0000   728      474.0000      500.0000   223512    5.49%
    152   154      500.0000   728      474.0000      500.0000   226912    5.49%
    154   156      500.0000   743      474.0000      500.0000   229669    5.49%
    156   158      500.0000   746      474.0000      500.0000   231355    5.49%
    158   160      500.0000   791      474.0000      500.0000   233507    5.49%
    160   162      500.0000   769      474.0000      500.0000   235446    5.49%
    162   164      500.0000   789      474.0000      500.0000   237360    5.49%
    164   166      500.0000   805      474.0000      500.0000   239622    5.49%
    166   168      500.0000   819      474.0000      500.0000   244244    5.49%
Elapsed time = 266.38 sec. (254902.56 ticks, tree = 6.33 MB, solutions = 4)
    168   170      500.0000   768      474.0000      500.0000   246014    5.49%
    170   172      500.0000   758      474.0000      500.0000   247173    5.49%
    172   174      500.0000   777      474.0000      500.0000   248618    5.49%
    174   176      500.0000   823      474.0000      500.0000   250506    5.49%
    177   179      500.0000   755      474.0000      500.0000   252085    5.49%
    179   181      500.0000   758      474.0000      500.0000   254614    5.49%
    180   182      500.0000   804      474.0000      500.0000   256329    5.49%
    182   184      500.0000   836      474.0000      500.0000   259265    5.49%
    184   186      500.0000   774      474.0000      500.0000   261683    5.49%
    192   194      500.0000   789      474.0000      500.0000   269071    5.49%
Elapsed time = 281.81 sec. (268968.76 ticks, tree = 7.36 MB, solutions = 4)
    200   202      500.0000   749      474.0000      500.0000   276471    5.49%
    207   209      500.0000   850      474.0000      500.0000   289139    5.49%
    215   217      500.0000   749      474.0000      500.0000   298527    5.49%
    223   225      500.0000   749      474.0000      500.0000   308034    5.49%
    231   233      500.0000   755      474.0000      500.0000   316695    5.49%
    239   241      500.0000   755      474.0000      500.0000   325439    5.49%
    249   251      500.0000   813      474.0000      500.0000   332100    5.49%
    257   259      500.0000   790      474.0000      500.0000   342699    5.49%
    265   267      500.0000   915      474.0000      500.0000   351265    5.49%
    275   277      500.0000   808      474.0000      500.0000   358115    5.49%
Elapsed time = 328.66 sec. (311543.50 ticks, tree = 10.68 MB, solutions = 4)
    283   285      500.0000   808      474.0000      500.0000   367981    5.49%
    291   293      500.0000   796      474.0000      500.0000   375535    5.49%
    299   301      500.0000   793      474.0000      500.0000   384361    5.49%
    304   306      500.0000   768      474.0000      500.0000   388399    5.49%
    313   315      500.0000   783      474.0000      500.0000   395753    5.49%
    321   323      500.0000   806      474.0000      500.0000   403893    5.49%
    329   331      500.0000   758      474.0000      500.0000   412956    5.49%
    336   338      500.0000   834      474.0000      500.0000   423616    5.49%
    344   346      500.0000   749      474.0000      500.0000   432161    5.49%
    352   354      500.0000   761      474.0000      500.0000   441042    5.49%
Elapsed time = 372.35 sec. (351598.98 ticks, tree = 13.79 MB, solutions = 4)
    360   362      500.0000   766      474.0000      500.0000   448429    5.49%
    367   369      500.0000   899      474.0000      500.0000   460402    5.49%
    375   377      500.0000   881      474.0000      500.0000   471222    5.49%
    383   385      500.0000   843      474.0000      500.0000   479366    5.49%
    391   393      500.0000   767      474.0000      500.0000   487034    5.49%
    399   401      500.0000   812      474.0000      500.0000   495463    5.49%
    400   402      500.0000   765      474.0000      500.0000   496027    5.49%
    409   411      500.0000   876      474.0000      500.0000   503028    5.49%
    418   420      500.0000   759      474.0000      500.0000   510592    5.49%
    425   427      500.0000   862      474.0000      500.0000   526957    5.49%
Elapsed time = 443.86 sec. (416514.56 ticks, tree = 16.67 MB, solutions = 4)
    432   434      500.0000   882      474.0000      500.0000   537479    5.49%
    440   442      500.0000   838      474.0000      500.0000   547761    5.49%
    445   447      500.0000   751      474.0000      500.0000   558084    5.49%
    453   455      500.0000   874      474.0000      500.0000   567452    5.49%
    460   462      500.0000   847      474.0000      500.0000   578601    5.49%
    466   468      500.0000   806      474.0000      500.0000   591633    5.49%
    473   475      500.0000   756      474.0000      500.0000   602299    5.49%
    479   481      500.0000   744      474.0000      500.0000   614135    5.49%
    484   486      500.0000   745      474.0000      500.0000   623813    5.49%
    489   491      500.0000   738      474.0000      500.0000   626922    5.49%
Elapsed time = 491.51 sec. (459911.98 ticks, tree = 19.23 MB, solutions = 4)
    496   498      500.0000   741      474.0000      500.0000   636032    5.49%
    501   503      500.0000   799      474.0000      500.0000   645110    5.49%
    506   508      500.0000   779      474.0000      500.0000   650411    5.49%
    511   513      500.0000   727      474.0000      500.0000   660028    5.49%
    514   516      500.0000   848      474.0000      500.0000   669793    5.49%
    517   519      500.0000   769      474.0000      500.0000   683969    5.49%
*   520+  520                          475.0000      500.0000             5.26%
    520   522      500.0000   810      475.0000      500.0000   690830    5.26%
*   521+  521                          483.0000      500.0000             3.52%
*   523+  523                          487.0000      500.0000             2.67%
    523   525      500.0000   776      487.0000      500.0000   694963    2.67%
    530   532      500.0000   753      487.0000      500.0000   700926    2.67%
    537   539      500.0000   792      487.0000      500.0000   708169    2.67%
Elapsed time = 577.15 sec. (538231.94 ticks, tree = 21.09 MB, solutions = 7)
    545   547      500.0000   756      487.0000      500.0000   713360    2.67%
    552   554      500.0000   755      487.0000      500.0000   720801    2.67%
    559   561      500.0000   765      487.0000      500.0000   727030    2.67%
    560   562      500.0000   791      487.0000      500.0000   728720    2.67%

Clique cuts applied:  101
Zero-half cuts applied:  55
Lift and project cuts applied:  1
Gomory fractional cuts applied:  2

Root node processing (before b&c):
  Real time             =  110.66 sec. (113289.03 ticks)
Sequential b&c:
  Real time             =  489.34 sec. (445492.33 ticks)
                          ------------
Total (root+branch&cut) =  600.00 sec. (558781.36 ticks)
Primal:	487
Dual:	500
Status:	Feasible
Time:	599.94
Sequence:
	13
	12
	6
	9
	3
	18
	10
	19
	18
	2
	5
	19
	16
	18
	4
	10
	1
	15
	2
	18
	19
	16
	0
	15
	16
	1
	3
	9
	8
	3
	13
	6
	12
	9
	1
	6
	10
	15
	6
	10
	19
	18
	0
	13
	14
	0
	17
	11
	5
	16
	4
	12
	2
	11
	5
	17
	11
	8
	2
	15
	1
	16
	15
	7
	10
	19
	18
	18
	19
	8
	6
	3
	14
	10
	3
	7
	13
	12
	0
	4
	10
	12
	6
	9
	7
	12
	13
	0
	3
	13
	14
	3
	9
	1
	18
	13
	3
	1
	9
	8
	3
	10
	4
	14
	17
	11
	6
	17
	8
	11
	2
	18
	14
	6
	13
	0
	12
	9
	1
	3
	4
	8
	2
	5
	19
	16
	18
	3
	16
	6
	8
	9
	1
	0
	13
	7
	14
	9
	1
	5
	1
	9
	6
	8
	9
	3
	14
	6
	12
	9
	1
	18
	19
	5
	14
	2
	19
	5
	16
	15
	1
	2
	12
	18
	13
	3
	1
	9
	12
	5
	2
	1
	12
	9
	5
	1
	4
	17
	14
	11
	17
	6
	11
	12
	18
	7
	13
	7
	12
	9
	7
	12
	11
	18
	17
	11
	8
	2
	15
	14
	2
	15
	1
	16
	15
	6
	10
	11
	5
	17
	11
	8
	3
	9
	14
	3
	13
	6
	5
	13
	7
	12
	4
	10
	7
	12
	9
	6
	12
	11
	5
	5
	19
	10
	0
	15
	10
	1
	4
	17
	8
	4
	10
	7
	12
	9
	7
	14
	11
	17
	5
	11
	16
	6
	3
	9
	1
	6
	9
	12
	14
	0
	2
	12
	4
	8
	2
	12
	4
	10
	5
	19
	2
	14
	15
	16
	6
	19
	18
	14
	0
	17
	11
	14
	17
	4
	8
	3
	13
	18
	6
	10
	19
	18
	18
	19
	10
	0
	4
	10
	5
	19
	2
	8
	15
	10
	0
	11
	17
	8
	4
	16
	6
	11
	17
	14
	4
	10
	3
	8
	9
	6
	12
	2
	18
	11
	17
	14
	0
	17
	11
	14
	17
	4
	1
	17
	8
	18
	19
	2
	14
	4
	17
	14
	11
	17
	6
	11
	17
	18
	1
	18
	19
	5
	16
	4
	6
	17
	8
	5
	2
	19
	18
	16
	0
	19
	5
	18
	19
	16
	0
	5
	11
	17
	8
	6
	17
	11
	0
	10
	5
	19
	2
	8
	15
	16
	6
	19
	18
	14
	9
	1
	3
	14
	9
	12
	6
	11
	18
	17
	14
	11
	2
	18
	12
	10
	6
	4
	8
	16
	15
	7
	2
	14
	14
	9
	0
	1
	13
	18
	6
	16
	19
	18
	18
	19
	10
	6
	15
	16
	1
	15
	2
	1
	15
	10
	5
	19
	2
	8
	15
	10
	7
	19
	5
	14
	9
	1
	3
	9
	18
	8
	19
	2
	5
	12
	9
	0
	3
	13
	18
	3
	13
	1
	18
	15
	0
	16
	19
	5
	7
	9
	12
	6
	1
	17
	7
	14
	13
	3
	0
	9
	12
	5
	7
	11
	17
